41
28
0 30 36 37 38 39
1 29 30 36 37 39
2 30 36 37 38 39
3 29 30 34 36 37 38 39
4 29 30 31 36 37 39
5 28 29 30 31 36 38 39 40
6 29 30 36 39 40
7 28 30 33 34 36 37 39 40
8 28 30 32 36 37
9 29 30 32 34 37 38 39
10 29 31 35 36 39
11 29 30 31 33 34 37 39
12 30 31 34 38 39
13 29 33
14 31 36 39
15 31 36
16 29 38 40
17 28 36 40
18 29 40
19 37 38 40
20 31 34 36
21 40
22 29 30 36 40
23 35
24 37 38
25 30 33 39
26
27
